14 47
74 78
13 20
45 25
93 36
13 30
14 5
12 62
74 12
17 23
14 95
10 37
73 29
56 99
20 88
45 41
78 15
35 60
82 4
98 40
35 31
34 39
80 72
19 88
91 11
12 81
11 40
16 11
52 49
66 39
62 35
69 50
13 49
79 96
96 40